768956cc8d1f2d18ae1929f6bb26557a
start rulaj la 2:43 dimineata


ioscaa1@Bogdan:~$ minisat 768956cc8d1f2d18ae1929f6bb26557a.cnf 768956cc8d1f2d18ae1929f6bb26557a.out
WARNING: for repeatability, setting FPU to use double precision
============================[ Problem Statistics ]=============================
|                                                                             |
|  Number of variables:           273                                         |
|  Number of clauses:            6196                                         |
|  Parse time:                   0.01 s                                       |
|  Eliminated clauses:           0.00 Mb                                      |
|  Simplification time:          0.00 s                                       |
|                                                                             |
============================[ Search Statistics ]==============================
| Conflicts |          ORIGINAL         |          LEARNT          | Progress |
|           |    Vars  Clauses Literals |    Limit  Clauses Lit/Cl |          |
===============================================================================
|       100 |     259     6092    18872 |     2233      100     23 |  0.001 % |
|       250 |     259     6092    18872 |     2457      250     29 |  0.001 % |
|       475 |     259     6092    18872 |     2702      475     31 |  0.001 % |
|       812 |     259     6092    18872 |     2973      812     27 |  0.001 % |
|      1318 |     259     6092    18872 |     3270     1318     25 |  0.001 % |
|      2077 |     259     6092    18872 |     3597     2077     24 |  0.001 % |
|      3216 |     259     6092    18872 |     3957     3216     23 |  0.001 % |
|      4924 |     259     6092    18872 |     4352     2917     21 |  0.001 % |
|      7486 |     259     6092    18872 |     4788     3272     21 |  0.001 % |
|     11330 |     259     6092    18872 |     5267     4656     21 |  0.001 % |
|     17096 |     259     6092    18872 |     5793     5027     21 |  0.001 % |
|     25745 |     259     6092    18872 |     6373     4887     20 |  0.001 % |
|     38719 |     259     6092    18872 |     7010     4969     20 |  0.001 % |
|     58180 |     259     6092    18872 |     7711     6510     18 |  0.008 % |
|     87372 |     259     6092    18872 |     8482     4265     19 |  0.026 % |
|    131161 |     259     6092    18872 |     9330     5055     17 |  0.026 % |
|    196845 |     259     6092    18872 |    10263     9353     20 |  0.008 % |
|    295371 |     259     6092    18872 |    11290     8949     19 |  0.008 % |
|    443160 |     259     6092    18872 |    12419     8320     20 |  0.027 % |
|    664843 |     259     6092    18872 |    13661    10436     18 |  0.008 % |
|    997368 |     259     6092    18872 |    15027    11997     20 |  0.008 % |
|   1496156 |     259     6092    18872 |    16530    10568     16 |  0.008 % |
|   2244338 |     259     6092    18872 |    18183     8928     27 |  0.025 % |
|   3366612 |     259     6092    18872 |    20001    14052     17 |  0.008 % |
|   5050023 |     259     6092    18872 |    22001    16473     23 |  0.008 % |
|   7575139 |     259     6092    18872 |    24201    17842     26 |  0.001 % |
|  11362814 |     259     6092    18872 |    26622    15304     20 |  0.008 % |
|  17044326 |     259     6092    18872 |    29284    21552     21 |  0.008 % |
|  25566595 |     259     6092    18872 |    32212    27626     22 |  0.001 % |
|  38349998 |     259     6092    18872 |    35433    23397     24 |  0.001 % |
|  57525103 |     259     6092    18872 |    38977    13745     25 |  0.001 % |
|  86287761 |     259     6092    18872 |    42875    34295     18 |  0.008 % |
| 129431749 |     259     6092    18872 |    47162    40302     22 |  0.008 % |
| 194147731 |     259     6092    18872 |    51878    44349     20 |  0.027 % |
| 291221704 |     259     6092    18872 |    57066    48971     18 |  0.026 % |
| 436832664 |     259     6092    18872 |    62773    44466     18 |  0.008 % |
| 655249104 |     259     6092    18872 |    69050    47394     17 |  0.008 % |
| 982873765 |     259     6092    18872 |    75955    25578     29 |  0.001 % |
| 1474310757 |     259     6092    18872 |    83551    58597     18 |  0.008 % |
| -2083501051 |     259     6092    18872 |    91906    20828     22 |  0.001 % |
^C===============================================================================
restarts              : 2659608
conflicts             : 2729559218     (88870 /sec)
decisions             : 4037381072     (0.00 % random) (131451 /sec)
propagations          : 53324316793    (1736154 /sec)
conflict literals     : 64471850573    (33.35 % deleted)
Memory used           : 234.00 MB
CPU time              : 30714 s

INDETERMINATE